-706.00	-717.00
-753.00	-716.00
-757.00	-695.00
-788.00	-675.00
-792.00	-654.00
-839.00	-653.00
-870.00	-633.00
-874.00	-612.00
-905.00	-592.00
-952.00	-591.00
-956.00	-570.00
-1034.00	-549.00
-1139.00	-529.00
-1186.00	-528.00
-1217.00	-508.00
-1264.00	-507.00
-1295.00	-487.00
-1342.00	-486.00
-1373.00	-466.00
-1494.00	-465.00
-1615.00	-464.00
-1646.00	-444.00
-1767.00	-443.00
 -702.00	-907.00
